c   #vars: 123   #clauses: 564   #literals: 1554
c 
p cnf 123 564
37 38 66 67 0
18 90 91 -109 0
-2 -3 0
-4 -5 0
-6 -7 0
-8 -9 0
-11 -12 0
57 -96 101 102 0
-13 -14 0
-15 -16 0
2 3 57 -96 0
49 -77 92 93 0
-19 -20 0
-21 -22 0
-23 -24 0
-25 -26 0
-27 -28 0
-29 -30 0
-31 -32 0
-33 -34 0
-35 -36 0
-37 -38 0
-39 -40 0
1 -11 33 34 0
-41 -42 0
-43 -44 0
-45 -46 0
-47 -48 0
50 -62 103 104 0
68 92 93 -119 0
-51 -52 0
-53 -54 0
-55 -56 0
-58 -59 0
-60 -61 0
-62 -63 0
27 28 119 120 0
-64 -65 0
-66 -67 0
-55 73 74 75 0
-69 -70 0
-71 -72 0
-73 -74 0
2 3 76 -89 0
27 28 -76 89 0
-77 -78 0
-79 -80 0
-81 -82 0
-83 -84 0
-85 -86 0
-87 -88 0
2 3 100 -107 0
-90 -91 0
-92 -93 0
-94 -95 0
-96 -97 0
-98 -99 0
-71 109 110 123 0
11 12 101 102 0
-101 -102 0
-103 -104 0
-105 -106 0
-107 -108 0
-109 -110 0
8 9 111 112 0
-111 -112 0
-113 -114 0
13 14 81 82 0
-115 -116 0
-117 -118 0
-119 -120 0
69 70 94 95 0
98 99 117 118 0
-121 -122 0
21 22 96 97 0
33 34 87 88 0
17 45 46 -115 0
107 108 119 120 0
-2 17 45 46 0
8 9 117 118 0
18 -55 90 91 0
-1 -12 0
51 52 96 97 0
18 55 56 -109 0
-1 -14 0
69 70 111 112 0
18 55 56 -90 0
-1 -34 0
2 3 -25 57 0
-3 -17 0
41 42 45 46 0
-2 -41 0
-3 -42 0
-3 -57 0
-11 -28 76 89 0
27 28 -44 89 0
-3 -76 0
-53 109 110 123 0
-3 -100 0
6 7 45 46 0
-2 -113 0
-3 -114 0
10 -47 51 52 0
-4 -35 0
-5 -36 0
-4 -41 0
-5 -42 0
71 72 105 106 0
-4 -43 0
-5 -44 0
39 40 69 70 0
-4 -81 0
-5 -82 0
4 5 41 42 0
-6 -39 0
-7 -40 0
10 47 48 -51 0
-6 -43 0
-7 -44 0
-6 -45 0
-7 -46 0
15 16 77 78 0
-6 -94 0
-7 -95 0
15 16 60 61 0
-6 -115 0
-7 -116 0
-2 11 12 76 0
-8 -13 0
-9 -14 0
-2 -28 76 89 0
-23 73 74 75 0
-9 -68 0
11 12 76 -89 0
-8 -71 0
-9 -72 0
8 9 71 72 0
-8 -111 0
-9 -112 0
66 67 113 114 0
-8 -117 0
-9 -118 0
1 11 12 -33 0
-10 -38 0
15 16 23 24 0
10 -37 47 48 0
2 3 17 -115 0
1 11 12 -13 0
-10 -48 0
8 9 13 14 0
-10 -52 0
94 95 115 116 0
-11 -58 0
-12 -59 0
-11 -64 0
-12 -65 0
43 44 -76 89 0
-12 -76 0
81 82 121 122 0
-11 -79 0
-12 -80 0
81 82 103 104 0
-11 -94 0
-12 -95 0
11 12 105 106 0
-11 -101 0
-12 -102 0
23 24 107 108 0
-11 -105 0
-12 -106 0
41 42 51 52 0
13 14 19 20 0
-13 -19 0
-14 -20 0
-13 -23 0
-14 -24 0
19 20 53 54 0
-13 -33 0
-14 -34 0
19 20 64 65 0
-13 -37 0
-14 -38 0
6 7 94 95 0
-13 -81 0
-14 -82 0
18 -55 109 110 0
-15 -23 0
-16 -24 0
29 30 77 78 0
-15 -31 0
-16 -32 0
-25 57 101 102 0
-8 68 92 93 0
-16 -50 0
60 61 64 65 0
-15 -60 0
-16 -61 0
-15 -77 0
-16 -78 0
29 30 83 84 0
-15 -103 0
-16 -104 0
31 32 101 102 0
25 26 57 -101 0
-17 -46 0
60 61 115 116 0
25 26 57 -96 0
-17 -116 0
-31 49 92 93 0
-18 -56 0
39 40 62 63 0
49 77 78 -92 0
-18 -91 0
4 5 43 44 0
-31 49 77 78 0
-18 -110 0
53 54 -71 123 0
-19 -21 0
-20 -22 0
2 3 17 -45 0
-19 -45 0
-20 -46 0
39 40 79 80 0
-19 -53 0
-20 -54 0
33 34 79 80 0
19 20 45 46 0
1 13 14 -33 0
37 38 58 59 0
-19 -64 0
-20 -65 0
-19 -101 0
-20 -102 0
10 37 38 -47 0
-21 -69 0
-22 -70 0
-2 17 115 116 0
-21 -92 0
-22 -93 0
-15 50 62 63 0
-21 -96 0
-22 -97 0
10 -37 51 52 0
2 3 -11 76 0
-24 -75 0
23 24 -55 75 0
-23 -85 0
-24 -86 0
-23 -107 0
-24 -108 0
4 5 35 36 0
-25 -29 0
-26 -30 0
11 12 94 95 0
-26 -57 0
94 95 119 120 0
-25 -81 0
-26 -82 0
37 38 111 112 0
-25 -105 0
-26 -106 0
29 30 31 32 0
-27 -29 0
-28 -30 0
35 36 47 48 0
-27 -35 0
-28 -36 0
27 28 37 38 0
-27 -37 0
-28 -38 0
25 26 81 82 0
-27 -79 0
-28 -80 0
113 114 121 122 0
-27 -89 0
2 3 -87 100 0
19 20 101 102 0
-27 -96 0
-28 -97 0
94 95 105 106 0
-27 -103 0
-28 -104 0
13 14 37 38 0
-27 -119 0
-28 -120 0
15 16 31 32 0
-29 -31 0
-30 -32 0
77 78 85 86 0
-29 -77 0
-30 -78 0
31 32 49 -92 0
-29 -83 0
-30 -84 0
31 32 83 84 0
-29 -101 0
-30 -102 0
6 7 43 44 0
-31 -37 0
-32 -38 0
81 82 105 106 0
-15 50 103 104 0
-32 -49 0
19 20 21 22 0
-31 -83 0
-32 -84 0
43 44 66 67 0
-31 -101 0
-32 -102 0
62 63 98 99 0
-33 -64 0
-34 -65 0
4 5 81 82 0
-33 -79 0
-34 -80 0
83 84 87 88 0
-33 -85 0
-34 -86 0
47 48 92 93 0
-33 -87 0
-34 -88 0
1 -13 33 34 0
-2 25 26 57 0
-35 -47 0
-36 -48 0
-8 68 119 120 0
-35 -101 0
-36 -102 0
-37 -58 0
-38 -59 0
-37 -66 0
-38 -67 0
-37 -111 0
-38 -112 0
62 63 107 108 0
66 67 79 80 0
2 3 57 -101 0
-2 57 96 97 0
-39 -62 0
-40 -63 0
17 -45 115 116 0
-39 -69 0
-40 -70 0
27 28 35 36 0
-39 -79 0
-40 -80 0
-39 -117 0
-40 -118 0
57 96 97 -101 0
-41 -45 0
-42 -46 0
-41 -51 0
-42 -52 0
33 34 85 86 0
-41 -53 0
-42 -54 0
-43 -66 0
-44 -67 0
23 24 -73 75 0
-43 -89 0
87 88 100 -107 0
-43 -103 0
-44 -104 0
11 12 64 65 0
-45 -85 0
-46 -86 0
-11 -44 76 89 0
-47 -92 0
-48 -93 0
-47 -109 0
-48 -110 0
96 97 107 108 0
15 16 50 -103 0
-49 -78 0
25 26 29 30 0
15 16 50 -62 0
-49 -93 0
31 32 49 -77 0
8 9 68 -119 0
-50 -63 0
8 9 68 -92 0
-50 -104 0
51 52 53 54 0
-51 -53 0
-52 -54 0
53 54 121 122 0
-51 -62 0
-52 -63 0
53 54 117 118 0
-51 -96 0
-52 -97 0
41 42 53 54 0
-51 -119 0
-52 -120 0
109 110 121 122 0
-53 -117 0
-54 -118 0
2 3 41 42 0
-53 -121 0
-54 -122 0
73 74 101 102 0
-54 -123 0
50 62 63 -103 0
-55 -69 0
-56 -70 0
27 28 103 104 0
-2 100 107 108 0
-56 -75 0
51 52 119 120 0
-55 -103 0
-56 -104 0
60 61 90 91 0
-57 -97 0
60 61 71 72 0
-57 -102 0
96 97 98 99 0
-58 -69 0
-59 -70 0
69 70 90 91 0
-58 -87 0
-59 -88 0
-2 57 101 102 0
-60 -64 0
-61 -65 0
-2 -44 76 89 0
-60 -71 0
-61 -72 0
73 74 98 99 0
-60 -90 0
-61 -91 0
51 52 62 63 0
-60 -115 0
-61 -116 0
62 63 96 97 0
-62 -96 0
-63 -97 0
90 91 111 112 0
-62 -98 0
-63 -99 0
105 106 113 114 0
-62 -107 0
-63 -108 0
13 14 23 24 0
-62 -115 0
-63 -116 0
13 14 33 34 0
27 28 96 97 0
1 -11 13 14 0
55 56 69 70 0
-64 -119 0
-65 -120 0
33 34 64 65 0
-66 -79 0
-67 -80 0
11 12 58 59 0
-66 -113 0
-67 -114 0
27 28 79 80 0
55 56 -73 75 0
-68 -93 0
25 26 105 106 0
-23 55 56 75 0
-68 -120 0
73 74 121 122 0
-69 -90 0
-70 -91 0
43 44 103 104 0
-69 -94 0
-70 -95 0
109 110 115 116 0
-69 -111 0
-70 -112 0
11 12 79 80 0
-71 -105 0
-72 -106 0
10 37 38 -51 0
-72 -123 0
62 63 115 116 0
6 7 39 40 0
-87 100 107 108 0
-74 -75 0
92 93 113 114 0
-73 -98 0
-74 -99 0
6 7 115 116 0
-73 -101 0
-74 -102 0
-73 -121 0
-74 -122 0
31 32 37 38 0
-28 43 44 89 0
-2 87 88 100 0
45 46 85 86 0
-77 -85 0
-78 -86 0
23 24 85 86 0
-77 -117 0
-78 -118 0
35 36 101 102 0
-79 -113 0
-80 -114 0
-81 -103 0
-82 -104 0
18 -90 109 110 0
-81 -105 0
-82 -106 0
-25 57 96 97 0
-81 -121 0
-82 -122 0
87 88 119 120 0
-83 -87 0
-84 -88 0
27 28 29 30 0
-83 -107 0
-84 -108 0
58 59 87 88 0
71 72 -109 123 0
-88 -100 0
21 22 92 93 0
-87 -119 0
-88 -120 0
29 30 101 102 0
-90 -111 0
-91 -112 0
47 48 109 110 0
-92 -113 0
-93 -114 0
15 16 103 104 0
-94 -105 0
-95 -106 0
55 56 103 104 0
-94 -115 0
-95 -116 0
68 -92 119 120 0
-94 -119 0
-95 -120 0
64 65 119 120 0
-96 -98 0
-97 -99 0
79 80 113 114 0
-96 -107 0
-97 -108 0
58 59 69 70 0
-98 -117 0
-99 -118 0
-53 71 72 123 0
-100 -108 0
83 84 107 108 0
-105 -113 0
-106 -114 0
2 3 113 114 0
-107 -119 0
-108 -120 0
77 78 117 118 0
-109 -115 0
-110 -116 0
39 40 117 118 0
-109 -121 0
-110 -122 0
21 22 69 70 0
-110 -123 0
53 54 -109 123 0
-113 -121 0
-114 -122 0
